StudentsNr = 10;
InstructorsNr = 99;
DaysNr = 2;
SlotsPerDay = 15;
AvailabilitySlotsLenght = 5;
RoomNr = 1;
ProgrammNr = 2;
DegreeNr = 3;
RolesNr = 1;
CoursesNr = 5;
InstructorsProgramm = [{2}, {1}, {2}, {1}, {1, 2}, {1}, {1}, {2}, {2}, {2}, {2}, {1, 2}, {1, 2}, {1, 2}, {1}, {1}, {1}, {1}, {1, 2}, {1}, {1}, {1}, {1}, {1}, {1}, {2}, {1, 2}, {1}, {2}, {2}, {1}, {1}, {2}, {1, 2}, {1, 2}, {1, 2}, {2}, {1}, {1}, {1}, {2}, {1}, {1}, {1, 2}, {1}, {1}, {2}, {2}, {2}, {1, 2}, {1}, {2}, {2}, {1}, {2}, {1}, {1}, {1}, {1, 2}, {1}, {1}, {1}, {1}, {1, 2}, {1}, {1}, {1}, {2}, {1}, {1}, {1, 2}, {2}, {2}, {1}, {2}, {1, 2}, {1}, {1}, {1}, {1, 2}, {2}, {1}, {1}, {2}, {2}, {2}, {1, 2}, {1}, {2}, {1}, {2}, {1}, {1}, {1, 2}, {1, 2}, {2}, {1, 2}, {2}, {1}];
InstructorRolesPerProgramm = [|{5, 7, 13, 14, 15, 16, 17, 18, 19, 21, 27, 28, 31, 32, 36, 40, 42, 44, 45, 51, 54, 56, 58, 59, 63, 64, 65, 69, 71, 78, 79, 80, 87, 88, 93, 94, 97, 99}|{1, 5, 13, 14, 19, 26, 27, 30, 36, 37, 41, 44, 49, 52, 53, 55, 59, 64, 68, 71, 73, 75, 80, 81, 86, 87, 89, 94, 97}|];
InstructorsAvailability = [|1, 1, 1, 0, 1, 1, |0, 0, 1, 1, 1, 1, |0, 0, 0, 1, 1, 1, |1, 1, 1, 1, 1, 1, |0, 0, 0, 0, 1, 1, |1, 1, 1, 1, 1, 1, |0, 0, 1, 1, 0, 1, |1, 1, 1, 1, 1, 1, |0, 1, 1, 1, 1, 1, |1, 1, 1, 1, 1, 1, |0, 0, 0, 1, 1, 1, |0, 1, 1, 0, 1, 1, |0, 0, 1, 1, 1, 1, |1, 1, 1, 1, 1, 1, |1, 1, 1, 0, 0, 1, |0, 0, 1, 0, 1, 1, |1, 1, 1, 1, 1, 1, |1, 1, 0, 0, 1, 1, |0, 0, 1, 1, 1, 1, |1, 1, 1, 1, 1, 1, |0, 1, 0, 1, 1, 1, |0, 1, 1, 1, 1, 0, |1, 1, 1, 1, 1, 1, |1, 1, 1, 1, 1, 1, |1, 1, 0, 1, 1, 1, |1, 0, 1, 1, 1, 1, |1, 1, 0, 1, 1, 1, |1, 1, 1, 1, 1, 1, |0, 1, 1, 1, 0, 1, |1, 1, 1, 1, 1, 1, |0, 1, 1, 0, 0, 0, |0, 1, 1, 0, 0, 1, |0, 1, 1, 1, 1, 1, |1, 0, 1, 1, 1, 1, |0, 0, 1, 1, 1, 1, |0, 1, 1, 0, 1, 1, |1, 0, 0, 0, 1, 1, |0, 0, 0, 1, 1, 1, |1, 1, 1, 1, 1, 0, |0, 1, 1, 0, 0, 1, |1, 1, 1, 1, 1, 1, |1, 1, 1, 1, 1, 1, |0, 1, 1, 1, 1, 0, |0, 1, 1, 1, 1, 1, |0, 1, 1, 1, 1, 1, |1, 1, 1, 1, 1, 1, |0, 1, 1, 1, 1, 1, |0, 0, 0, 1, 1, 1, |1, 1, 1, 1, 1, 1, |1, 1, 1, 1, 1, 1, |1, 1, 1, 1, 1, 1, |1, 1, 1, 1, 1, 1, |1, 1, 1, 1, 1, 1, |0, 1, 1, 1, 1, 1, |1, 1, 1, 1, 1, 1, |0, 0, 0, 1, 1, 1, |1, 1, 1, 1, 1, 1, |0, 1, 1, 1, 0, 1, |1, 1, 1, 1, 1, 1, |0, 1, 1, 1, 1, 1, |0, 1, 0, 0, 1, 1, |1, 1, 1, 1, 1, 1, |0, 0, 1, 1, 1, 1, |0, 1, 1, 1, 1, 1, |1, 0, 1, 1, 1, 1, |1, 1, 1, 1, 1, 1, |1, 1, 1, 1, 1, 1, |1, 1, 1, 1, 1, 1, |1, 1, 1, 1, 1, 1, |0, 1, 0, 0, 1, 1, |0, 1, 0, 1, 1, 1, |1, 0, 1, 1, 1, 1, |0, 0, 0, 0, 0, 0, |1, 0, 0, 1, 1, 0, |1, 0, 1, 0, 1, 1, |0, 0, 1, 1, 1, 1, |1, 1, 1, 1, 0, 1, |0, 1, 1, 1, 1, 0, |1, 1, 0, 1, 0, 1, |1, 1, 1, 1, 1, 0, |0, 1, 1, 1, 1, 1, |0, 1, 1, 1, 1, 1, |0, 1, 1, 1, 1, 1, |1, 1, 1, 1, 1, 1, |1, 0, 0, 0, 1, 1, |0, 1, 1, 1, 1, 0, |1, 1, 1, 1, 1, 1, |0, 1, 1, 1, 1, 1, |0, 0, 0, 0, 0, 1, |0, 0, 0, 0, 0, 0, |0, 0, 1, 1, 1, 1, |0, 0, 1, 0, 0, 1, |1, 1, 1, 1, 0, 1, |0, 1, 1, 1, 1, 1, |1, 1, 1, 0, 1, 1, |1, 1, 0, 0, 1, 1, |1, 1, 1, 1, 1, 1, |1, 1, 1, 1, 1, 1, |0, 1, 0, 0, 1, 1|];
StudentsProgramm = [1, 1, 1, 1, 1, 1, 2, 2, 2, 1];
StudentsDegree = [2, 1, 1, 1, 2, 2, 2, 2, 3, 1];
StudentsSupervisorId = [63, 2, 40, 56, 7, 46, 73, 29, 44, 4];
StudentsCourseIds = [{1, 2, 3, 5}, {1, 3, 4, 5}, {2, 3, 4, 5}, {1, 3, 4, 5}, {1, 2, 4, 5}, {2, 3, 4, 5}, {1, 2, 3, 4}, {1, 2, 3, 4}, {3}, {2, 3, 4, 5}];
StudentsAvailability = [|1, 1, 1, 1, 0, 0, |1, 1, 1, 0, 0, 0, |1, 0, 1, 1, 1, 1, |1, 1, 1, 1, 1, 1, |0, 0, 1, 1, 1, 1, |0, 0, 0, 0, 0, 0, |1, 1, 1, 0, 0, 0, |1, 1, 1, 1, 1, 1, |1, 1, 1, 1, 1, 1, |0, 1, 1, 1, 1, 1|];
TheoryticalMinCard = [0, 0, 0, 0, 0, 0, 0, 0, 0, 0];
CoursesInstructorIds = [{1, 2, 3, 5, 6, 9, 10, 11, 12, 13, 14, 16, 19, 20, 22, 26, 27, 33, 37, 38, 40, 41, 42, 43, 45, 48, 49, 53, 54, 55, 56, 57, 60, 61, 63, 65, 66, 69, 70, 71, 72, 75, 76, 80, 81, 83, 84, 86, 87, 88, 89, 91, 93, 94, 95, 96, 97, 98}, {1, 3, 4, 6, 7, 9, 10, 12, 13, 15, 18, 19, 20, 21, 22, 24, 27, 31, 32, 34, 35, 36, 38, 40, 41, 42, 43, 44, 45, 46, 48, 51, 54, 56, 57, 59, 63, 64, 66, 67, 68, 72, 75, 81, 82, 83, 84, 85, 86, 87, 89, 94, 95, 98, 99}, {8, 13, 16, 18, 19, 20, 21, 22, 24, 25, 26, 27, 28, 30, 32, 33, 36, 37, 38, 40, 41, 43, 45, 47, 49, 50, 51, 52, 53, 55, 56, 59, 61, 62, 63, 64, 67, 69, 70, 71, 73, 74, 75, 79, 81, 87, 88, 92, 94, 95, 96, 97, 98}, {1, 2, 3, 4, 5, 6, 8, 9, 11, 12, 13, 14, 16, 17, 18, 19, 22, 23, 24, 27, 29, 32, 34, 36, 37, 38, 40, 41, 43, 44, 46, 47, 49, 50, 51, 52, 53, 54, 56, 57, 60, 64, 65, 68, 69, 72, 73, 74, 75, 77, 79, 80, 81, 82, 85, 86, 88, 92, 93, 95, 96, 97, 98, 99}, {1, 2, 3, 5, 7, 9, 10, 14, 18, 19, 21, 24, 25, 32, 33, 35, 36, 40, 41, 44, 45, 49, 51, 53, 60, 63, 66, 67, 69, 71, 72, 75, 79, 80, 83, 84, 85, 87, 88, 89, 90, 94, 95, 96}];
RolesDemands = [21];
RolesContinuity = [];
ExamLen = [1, 1, 1, 1, 1, 1, 1, 1, 2, 1];
LunchTsMinLen = 1;
LunchStarts = [6..10, 19..24];
SupervisorAvailable = 0;
OptimalLunchLenght = [1, 1];
OptimalStartTs = [2, 0];
OptimalFinishTs = [0, 15];
MinimizeRooms = 500;
RolesSoftContinuity = [|1|2|];
SameDegreeInRoom = 0;
Mergeability = 0;
